3	25
565	956	19	504	452	741	868	108	410	87	598	177	548	843	737	409	131	883	881	382	596	26	636	104	484	
384	199	167	614	866	290	941	177	189	611	695	203	806	379	553	43	391	556	412	44	893	141	442	605	199	
1800	1800	1800	
